(set-info :Origin "This instance was generated by: BanditFuzz-- an RL fuzzer for SMT solvers" )
(set-info :Author "Joe Scott, Fed Mora, Vijay Ganesh" )
(set-info :Contact "Joe Scott, joseph.scott@uwaterloo.ca")
(set-logic QF_BV)
(declare-const bool_0 Bool)
(declare-const bool_1 Bool)
(declare-const bool_2 Bool)
(declare-const bool_3 Bool)
(declare-const bool_4 Bool)
(declare-const bv_0 (_ BitVec 32))
(declare-const bv_1 (_ BitVec 32))
(declare-const bv_2 (_ BitVec 32))
(declare-const bv_3 (_ BitVec 32))
(declare-const bv_4 (_ BitVec 32))
(assert (bvugt (bvsdiv (bvshl bv_3 bv_1) (bvshl #x489a1fee  #x44de2185 )) (bvsrem (bvsdiv bv_1 #x68fddaf4 ) (bvshl bv_4 bv_0))))
(assert (and (bvule (bvsub bv_1 #xdbd4cae9 ) (bvlshr #xbd2b7af0  bv_3)) (bvsgt (bvor bv_4 bv_1) (bvsdiv bv_2 #xf89d524d ))))
(assert (or (or (bvsge #x25435bd4  #x24d3bf5e ) (bvsge bv_2 bv_1)) (bvult (bvudiv #xccd658e0  bv_2) (bvurem bv_4 #xad6136ce ))))
(assert (not (bvsle (bvsub bv_0 #xc37b59fa ) (bvmul bv_3 #x684288d8 ))))
(assert (bvsgt (bvand (bvnor bv_1 #x16b17d1f ) (bvxnor bv_0 bv_0)) (bvudiv (bvxnor bv_1 #x0f133839 ) (bvsmod #x9ab1128e  #x07fdffa7 ))))
(check-sat)
(exit)
